WARNING: for repeatability, setting FPU to use double precision
============================[ Problem Statistics ]=============================
|                                                                             |
|  Number of variables:           800                                         |
|  Number of clauses:           15200                                         |
|  Parse time:                   0.00 s                                       |
|                                                                             |
c ============================[ Search Statistics ]==============================
c | Conflicts |          ORIGINAL         |          LEARNT          | Progress |
c |           |    Vars  Clauses Literals |    Limit  Clauses Lit/Cl |          |
c ===============================================================================
c Switched to VSIDS.
c Switched to LRB.
c Switched to VSIDS.
c Switched to LRB.
c Switched to VSIDS.
c Switched to LRB.
c Switched to VSIDS.
c Switched to LRB.
c Switched to VSIDS.
c Switched to LRB.
c Switched to VSIDS.
c Switched to LRB.
c Switched to VSIDS.
c Switched to LRB.
c Switched to VSIDS.
c Switched to LRB.
c Switched to VSIDS.
c Switched to LRB.
c Switched to VSIDS.
c Switched to LRB.
c ===============================================================================
restarts                  : 12682
conflicts                 : 9664160        (4298 /sec)
decisions                 : 11822071       (0.00 % random) (5258 /sec)
propagations              : 1934805149     (860522 /sec)
conflict literals         : 389971927      (41.86 % deleted)

conflicts w/ DIP found    : 5914906        (61.20 % of conflicts)
conflicts w/ dangerous DIP: 0              (0.00 % of conflicts)
conflicts w/ DIP-learning : 56801          (0.59 % of conflicts)
decisions on ext vars     : 21963          (0.19 % of decisions)
total ext vars            : 37771       
tried delete ext vars     : 41929       
deleted ext vars          : 37420       
max ext vars              : 2356        

Memory used               : 124.00 MB
CPU time                  : 2248.41 s
DIP computation time      : 60.1426 s (2.67 % of total time)
ER_sel time               : 9.77456 s
ER_add time               : 0.115505 s
ER_delC time              : 0 s
ER_delV time              : 1.27036 s
ER_sub time               : 11.7918 s
ER_stat time              : 0 s

UNSATISFIABLE
